NAME : graph17
COMMENT : H Algorithm Solution by Oscar Riveros [http://twitter.com/maxtuno]
TYPE : TOUR
DIMENSION : 162
TOUR_SECTION
91
30
121
33
46
51
70
99
57
125
56
75
26
95
82
6
48
2
133
47
93
25
73
3
23
107
50
137
80
156
11
76
97
65
81
154
106
67
79
149
157
43
114
18
152
124
22
138
4
64
5
53
35
62
71
94
117
60
32
128
40
98
49
7
54
143
27
86
139
159
129
8
120
13
36
28
112
101
38
42
45
20
59
160
126
44
140
66
151
111
10
21
105
83
16
96
134
130
100
131
92
150
132
155
41
9
103
12
123
31
61
17
89
24
37
161
85
1
102
15
52
158
19
63
145
135
14
69
72
78
110
122
84
127
153
115
119
162
141
39
58
88
113
148
77
90
118
146
68
109
144
136
29
142
147
34
87
116
74
104
55
108
-1
EOF
